32      4       
18      14      19      14      
0       0       0       0       0       3       2       3       4       
9       9       0       0       0       3       6       12      25      
3       0       0       4       0       3       5       7       28      
9       8       0       0       0       3       9       11      17      
3       0       0       3       0       2       17      18      
7       0       0       5       0       3       10      20      22      
10      0       8       0       0       3       8       13      14      
1       0       0       5       0       2       16      23      
5       0       0       0       10      3       14      15      26      
9       0       0       2       0       3       21      24      28      
3       0       6       0       0       3       16      19      24      
4       5       0       0       0       1       26      
8       0       0       3       0       1       25      
9       1       0       0       0       2       21      22      
9       0       0       0       4       1       20      
1       0       0       0       7       2       21      27      
9       0       0       0       3       1       20      
1       0       0       0       10      2       24      27      
2       0       0       6       0       1       28      
2       0       0       0       8       1       23      
6       7       0       0       0       2       29      31      
4       0       0       1       0       2       23      27      
9       0       0       0       10      2       29      31      
9       0       5       0       0       2       30      31      
8       5       0       0       0       1       26      
4       9       0       0       0       1       30      
1       6       0       0       0       1       30      
1       0       0       0       3       1       29      
7       0       5       0       0       1       32      
9       0       0       1       0       1       32      
4       0       7       0       0       1       32      
0       0       0       0       0       0       